peakDumbCharging = 11100; 
Machine = anon_enum(16); 
machineSpeed = [3700,3700,3700,3700,3700,3700,3700,3700,3700,3700,3700,3700,3700,3700,3700,3700]; 
machineLoad = [3700,3700,3700,3700,3700,3700,3700,3700,3700,3700,3700,3700,3700,3700,3700,3700]; 
Car = anon_enum(7); 
demandCar = [4240,16160,13080,3480,6520,15560,14440]; 
arrivalCar = [74,66,56,48,46,43,40]; 
departureCar = [77,74,61,50,50,49,48]; 
